SCIP Status        : solving was interrupted [time limit reached]
Total Time         :    3600.01
  solving          :    3600.01
  presolving       :       0.48 (included in solving)
  reading          :       0.00
  copying          :       1.67 (47 #copies) (minimal 0.00, maximal 0.10, average 0.04)
Original Problem   :
  Problem name     : bbbenchmark/g05_100.7.cut
  Variables        : 101 (100 binary, 0 integer, 0 implicit integer, 1 continuous)
  Constraints      : 1 initial, 1 maximal
  Objective        : minimize, 1 non-zeros (abs.min = 1, abs.max = 1)
Presolved Problem  :
  Problem name     : t_bbbenchmark/g05_100.7.cut
  Variables        : 1952 (100 binary, 0 integer, 1839 implicit integer, 13 continuous)
  Constraints      : 1876 initial, 10959 maximal
  Objective        : minimize, 1 non-zeros (abs.min = 1, abs.max = 1)
  Nonzeros         : 8801 constraint, 202 clique table
Presolvers         :   ExecTime  SetupTime  Calls  FixedVars   AggrVars   ChgTypes  ChgBounds   AddHoles    DelCons    AddCons   ChgSides   ChgCoefs
  boundshift       :       0.00       0.00      0          0          0          0          0          0          0          0          0          0
  convertinttobin  :       0.00       0.00      0          0          0          0          0          0          0          0          0          0
  domcol           :       0.00       0.00      1          0          0          0          0          0          0          0          0          0
  dualagg          :       0.00       0.00      0          0          0          0          0          0          0          0          0          0
  dualcomp         :       0.00       0.00      1          0          0          0          0          0          0          0          0          0
  dualinfer        :       0.00       0.00      0          0          0          0          0          0          0          0          0          0
  dualsparsify     :       0.00       0.00      1          0          0          0          0          0          0          0          0          0
  gateextraction   :       0.00       0.00      0          0          0          0          0          0          0          0          0          0
  implics          :       0.00       0.00      2          0          0          0          0          0          0          0          0          0
  inttobinary      :       0.00       0.00      0          0          0          0          0          0          0          0          0          0
  qpkktref         :       0.00       0.00      0          0          0          0          0          0          0          0          0          0
  redvub           :       0.00       0.00      0          0          0          0          0          0          0          0          0          0
  sparsify         :       0.00       0.00      1          0          0          0          0          0          0          0          0          0
  stuffing         :       0.00       0.00      0          0          0          0          0          0          0          0          0          0
  trivial          :       0.00       0.00      4          0          0          0          0          0          0          0          0          0
  tworowbnd        :       0.00       0.00      0          0          0          0          0          0          0          0          0          0
  dualfix          :       0.00       0.00      4          0          0          0          0          0          0          0          0          0
  genvbounds       :       0.00       0.00      0          0          0          0          0          0          0          0          0          0
  probing          :       0.32       0.00      1          0          0          0          0          0          0          0          0          0
  pseudoobj        :       0.00       0.00      1          0          0          0          1          0          0          0          0          0
  symmetry         :       0.00       0.00      0          0          0          0          0          0          0          0          0          0
  vbounds          :       0.00       0.00      1          0          0          0          0          0          0          0          0          0
  varbound         :       0.00       0.00      2          0          0          0          0          0          0          0          0          0
  and              :       0.01       0.00      2          0          0          0          0          0          0          0          0          0
  linear           :       0.00       0.00      2          0          0          0          0          0          0          0          0          0
  logicor          :       0.00       0.00      0          0          0          0          0          0          0          0          0          0
  bounddisjunction :       0.00       0.00      0          0          0          0          0          0          0          0          0          0
  nonlinear        :       0.15       0.01      5          0          0          0          1          0          0       1875          0          0
  benders          :       0.00       0.00      0          0          0          0          0          0          0          0          0          0
  components       :       0.00       0.00      1          0          0          0          0          0          0          0          0          0
  root node        :          -          -      -          0          -          -         14          -          -          -          -          -
Constraints        :     Number  MaxNumber  #Separate #Propagate    #EnfoLP    #EnfoRelax  #EnfoPS    #Check   #ResProp    Cutoffs    DomReds       Cuts    Applied      Conss   Children
  benderslp        :          0          0          0          0      61805          0          0      10336          0          0          0          0          0          0          0
  integral         :          0          0          0          0      61805          0          0      10336          0          0       1789          0          0       1405     121834
  varbound         :         12         12        132     498624          0          0          0         87          0          0      13859          0          0          0          0
  and              :       1839       1839      75403     593319          2          0          0         87     308486          8    1633092       6041       5382          0          0
  linear           :         25+        30        132     593353          2          0          0         85       1153         13     171944          0          0          0          0
  logicor          :          0+      7481          0      94665          0          0          0          0        473        382         69          0          0          0          0
  bounddisjunction :          0+      1840          0      48898          0          0          0          0          6         81          9          0          0          0          0
  benders          :          0          0          0          0          2          0          0         39          0          0          0          0          0          0          0
  countsols        :          0          0          0          0          2          0          0         39          0          0          0          0          0          0          0
  components       :          0          0          0          0          0          0          0          0          0          0          0          0          0          0          0
Constraint Timings :  TotalTime  SetupTime   Separate  Propagate     EnfoLP     EnfoPS     EnfoRelax   Check    ResProp    SB-Prop
  benderslp        :       0.09       0.00       0.00       0.00       0.09       0.00       0.00       0.00       0.00       0.00
  integral         :      56.12       0.00       0.00       0.00      56.09       0.00       0.00       0.03       0.00       0.00
  varbound         :       0.44       0.00       0.01       0.42       0.00       0.00       0.00       0.00       0.00       0.01
  and              :      90.60       0.00      58.22      31.48       0.00       0.00       0.00       0.03       0.29       0.58
  linear           :       3.17       0.00       0.06       3.05       0.00       0.00       0.00       0.00       0.00       0.06
  logicor          :       5.33       0.00       0.00       5.32       0.00       0.00       0.00       0.00       0.00       0.01
  bounddisjunction :       1.72       0.00       0.00       1.71       0.00       0.00       0.00       0.00       0.00       0.01
  benders          :       0.00       0.00       0.00       0.00       0.00       0.00       0.00       0.00       0.00       0.00
  countsols        :       0.00       0.00       0.00       0.00       0.00       0.00       0.00       0.00       0.00       0.00
  components       :       0.19       0.00       0.00       0.19       0.00       0.00       0.00       0.00       0.00       0.00
Propagators        : #Propagate   #ResProp    Cutoffs    DomReds
  dualfix          :          4          0          0          0
  genvbounds       :          0          0          0          0
  nlobbt           :          0          0          0          0
  obbt             :          0          0          0          0
  probing          :          0          0          0          0
  pseudoobj        :     249561          0          0         15
  redcost          :     148617          0          0      62455
  rootredcost      :         12          0          0          0
  symmetry         :          0          0          0          0
  vbounds          :      69860          0          0          0
Propagator Timings :  TotalTime  SetupTime   Presolve  Propagate    ResProp    SB-Prop
  dualfix          :       0.01       0.00       0.00       0.01       0.00       0.00
  genvbounds       :       0.43       0.00       0.00       0.42       0.00       0.01
  nlobbt           :       0.00       0.00       0.00       0.00       0.00       0.00
  obbt             :       0.00       0.00       0.00       0.00       0.00       0.00
  probing          :       0.32       0.00       0.32       0.00       0.00       0.00
  pseudoobj        :       0.59       0.00       0.00       0.59       0.00       0.00
  redcost          :      10.74       0.00       0.00      10.74       0.00       0.00
  rootredcost      :       0.42       0.00       0.00       0.40       0.00       0.02
  symmetry         :       0.20       0.00       0.00       0.20       0.00       0.00
  vbounds          :       0.52       0.00       0.00       0.51       0.00       0.01
Conflict Analysis  :       Time      Calls    Success    DomReds  Conflicts   Literals    Reconvs ReconvLits   Dualrays   Nonzeros   LP Iters   (pool size: [10000,10000])
  propagation      :       0.01        471        397          -        497       66.7          0        0.0          -          -          -
  infeasible LP    :       0.05         29         29          -       1163      134.9          0        0.0         45      160.2          0
  bound exceed. LP :      18.44       7062       5373          -      97870      104.1          1       59.0          0        0.0      37459
  strong branching :       0.00          0          0          -          0        0.0          0        0.0          -          -          0
  pseudo solution  :       0.00          0          0          -          0        0.0          0        0.0          -          -          -
  applied globally :       0.48          -          -          0      24155      109.0          -          -         45          -          -
  applied locally  :          -          -          -          0          0        0.0          -          -          0          -          -
Separators         :   ExecTime  SetupTime      Calls  RootCalls    Cutoffs    DomReds  FoundCuts ViaPoolAdd  DirectAdd    Applied ViaPoolApp  DirectApp      Conss
  cut pool         :       6.35          -      22720        166          -          -      34565    1828571          -          -          -          -          -    (maximal pool size:       2905)
  aggregation      :     108.03       0.00       4655        132          0          0        250        233          0         43         43          0          0
  > cmir           :          -          -          -          -          -          -          -        233          0         43         43          0          -
  > flowcover      :          -          -          -          -          -          -          -          0          0          0          0          0          -
  > knapsackcover  :          -          -          -          -          -          -          -          0          0          0          0          0          -
  cgmip            :       0.00       0.00          0          0          0          0          0          0          0          0          0          0          0
  clique           :       0.00       0.00        132        132          0          0          0          0          0          0          0          0          0
  closecuts        :       0.00       0.00          0          0          0          0          0          0          0          0          0          0          0
  convexproj       :       0.00       0.00          0          0          0          0          0          0          0          0          0          0          0
  disjunctive      :       0.00       0.00          0          0          0          0          0          0          0          0          0          0          0
  eccuts           :       0.00       0.00          0          0          0          0          0          0          0          0          0          0          0
  gauge            :       0.00       0.00          0          0          0          0          0          0          0          0          0          0          0
  gomory           :       0.00       0.00          0          0          0          0          0          0          0          0          0          0          0
  > gomorymi       :          -          -          -          -          -          -          -          0          0          0          0          0          -
  > strongcg       :          -          -          -          -          -          -          -          0          0          0          0          0          -
  impliedbounds    :       0.24       0.00       4655        132          0          0         17          0          0          0          0          0          0
  interlattice     :       0.58       0.00         96         96          0          0         96          0         96         93          0         93          0
  interminor       :       0.00       0.00          0          0          0          0          0          0          0          0          0          0          0
  intersub         :       0.09       0.00          5          5          0          0          5          0          5          5          0          5          0
  intobj           :       0.00       0.00          0          0          0          0          0          0          0          0          0          0          0
  mcf              :       0.00       0.00          1          1          0          0          0          0          0          0          0          0          0
  minor            :       0.02       0.00          0          0          0          0          0          0          0          0          0          0          0
  mixing           :       0.03       0.00       4655        132          0          0          0          0          0          0          0          0          0
  oddcycle         :       0.00       0.00          0          0          0          0          0          0          0          0          0          0          0
  rapidlearning    :       0.01       0.00          0          0          0          0          0          0          0          0          0          0          0
  rlt              :       0.00       0.00         10         10          0          0          0          0          0          0          0          0          0
  zerohalf         :      48.77       0.00       4300         20          0          0      34298    1828338          0     217636     217636          0          0
Cutselectors       :   ExecTime  SetupTime      Calls  RootCalls   Selected     Forced   Filtered  RootSelec   RootForc   RootFilt 
  hybrid           :       1.91       0.00      17451        134     223159          0    1611554        319          0         11
Pricers            :   ExecTime  SetupTime      Calls       Vars
  problem variables:       0.00          -          0          0
Branching Rules    :   ExecTime  SetupTime   BranchLP  BranchExt   BranchPS    Cutoffs    DomReds       Cuts      Conss   Children
  allfullstrong    :       0.00       0.00          0          0          0          0          0          0          0          0
  cloud            :       0.00       0.00          0          0          0          0          0          0          0          0
  distribution     :       0.00       0.00          0          0          0          0          0          0          0          0
  fullstrong       :       0.00       0.00          0          0          0          0          0          0          0          0
  inference        :       0.00       0.00          0          0          0          0          0          0          0          0
  leastinf         :       0.00       0.00          0          0          0          0          0          0          0          0
  lookahead        :       0.00       0.00          0          0          0          0          0          0          0          0
  mostinf          :       0.00       0.00          0          0          0          0          0          0          0          0
  multaggr         :       0.00       0.00          0          0          0          0          0          0          0          0
  nodereopt        :       0.00       0.00          0          0          0          0          0          0          0          0
  pscost           :       0.00       0.00          0          0          0          0          0          0          0          0
  random           :       0.00       0.00          0          0          0          0          0          0          0          0
  relpscost        :      55.83       0.00      61803          0          0          0       1789          0       1405     121834
  vanillafullstrong:       0.00       0.00          0          0          0          0          0          0          0          0
Primal Heuristics  :   ExecTime  SetupTime      Calls      Found       Best
  LP solutions     :       0.01          -          -          2          2
  relax solutions  :       0.00          -          -          0          0
  pseudo solutions :       0.00          -          -          0          0
  strong branching :       0.01          -          -          0          0
  actconsdiving    :       0.00       0.00          0          0          0
  adaptivediving   :       4.38       0.00         31          0          0
  alns             :       2.70       0.00         20          5          4
  bound            :       0.00       0.00          0          0          0
  clique           :       0.01       0.00          1          0          0
  coefdiving       :       0.00       0.00          0          0          0
  completesol      :       0.00       0.00          0          0          0
  conflictdiving   :     118.42       0.00        827          0          0
  crossover        :       6.91       0.00          4          3          3
  dins             :       0.00       0.00          0          0          0
  distributiondivin:      83.41       0.00        359          0          0
  dps              :       0.00       0.00          0          0          0
  dualval          :       0.00       0.00          0          0          0
  farkasdiving     :       0.00       0.00          0          0          0
  feaspump         :       0.54       0.00          1          1          1
  fixandinfer      :       0.00       0.00          0          0          0
  fracdiving       :      63.98       0.00        468          0          0
  gins             :       0.15       0.00          0          0          0
  guideddiving     :      59.08       0.00        467          1          1
  indicator        :       0.10       0.00          0          0          0
  indicatordiving  :       0.00       0.00          0          0          0
  intdiving        :       0.00       0.00          0          0          0
  intshifting      :       0.70       0.00         69          0          0
  linesearchdiving :      59.36       0.00        468          0          0
  localbranching   :       0.00       0.00          0          0          0
  locks            :       0.01       0.00          1          0          0
  lpface           :       0.11       0.00          0          0          0
  mpec             :     416.14       0.00         11          0          0
  multistart       :       0.00       0.00          0          0          0
  mutation         :       0.00       0.00          0          0          0
  nlpdiving        :      53.11       0.00          3          0          0
  objpscostdiving  :      75.95       0.00         71         16          0
  octane           :       0.00       0.00          0          0          0
  ofins            :       0.14       0.00          0          0          0
  oneopt           :       0.05       0.00         17          0          0
  padm             :       0.00       0.00          0          0          0
  proximity        :       0.00       0.00          0          0          0
  pscostdiving     :      65.51       0.00        373          1          1
  randrounding     :       1.07       0.00      10293          0          0
  rens             :       0.00       0.00          0          0          0
  reoptsols        :       0.00       0.00          0          0          0
  repair           :       0.00       0.00          0          0          0
  rins             :       5.29       0.00         22          1          1
  rootsoldiving    :      42.71       0.00         28          0          0
  rounding         :       1.29       0.00       3944          0          0
  shiftandpropagate:       0.00       0.00          0          0          0
  shifting         :      53.41       0.00      10080          5          3
  simplerounding   :       0.10       0.00          0          0          0
  subnlp           :     119.25       0.00          0          0          0
  trivial          :       0.00       0.00          2          2          2
  trivialnegation  :       0.00       0.00          0          0          0
  trustregion      :       0.00       0.00          0          0          0
  trysol           :       0.10       0.00          0          0          0
  twoopt           :       0.00       0.00          0          0          0
  undercover       :       1.54       0.00          1          1          1
  vbounds          :       0.00       0.00          0          0          0
  veclendiving     :      57.76       0.00        467          0          0
  zeroobj          :       0.00       0.00          0          0          0
  zirounding       :       0.35       0.00       1000          0          0
  other solutions  :          -          -          -          0          -
Diving (single)    :      Calls      Nodes   LP Iters Backtracks  Conflicts   MinDepth   MaxDepth   AvgDepth  RoundSols  NLeafSols  MinSolDpt  MaxSolDpt  AvgSolDpt
  actconsdiving    :          0          -          -          -          -          -          -          -          -          -          -          -          -
  coefdiving       :          0          -          -          -          -          -          -          -          -          -          -          -          -
  conflictdiving   :        827      41959    1083102        844      27256         55         92       73.9          0          -          -          -          -
  distributiondivin:        359      12088     560781        425       6543         44         71       57.1          0          -          -          -          -
  farkasdiving     :          0          -          -          -          -          -          -          -          -          -          -          -          -
  fracdiving       :        468      61353     510211        278       3111         47        558      155.4          0          -          -          -          -
  guideddiving     :        467      47588     498689        133       3630         46        351      125.9          0          1        110        110      110.0
  indicatordiving  :          0          -          -          -          -          -          -          -          -          -          -          -          -
  linesearchdiving :        468      21458     522373        418      17859         51        105       70.0          0          -          -          -          -
  pscostdiving     :        373      16250     574036        381      10108         48         87       67.3          0          1         79         79       79.0
  veclendiving     :        467      20296     499352        470      22362         54         82       66.6          0          -          -          -          -
Diving (adaptive)  :      Calls      Nodes   LP Iters Backtracks  Conflicts   MinDepth   MaxDepth   AvgDepth  RoundSols  NLeafSols  MinSolDpt  MaxSolDpt  AvgSolDpt
  actconsdiving    :          2         86       3421          2         11         58         59       58.5          0          -          -          -          -
  coefdiving       :         13        574      15086         10        625         58         78       65.8          0          -          -          -          -
  conflictdiving   :          0          -          -          -          -          -          -          -          -          -          -          -          -
  distributiondivin:          0          -          -          -          -          -          -          -          -          -          -          -          -
  farkasdiving     :          0          -          -          -          -          -          -          -          -          -          -          -          -
  fracdiving       :          1        139       1376          0          0        155        155      155.0          0          -          -          -          -
  guideddiving     :          3        248       3651          0         18         85        118       99.0          0          -          -          -          -
  indicatordiving  :          0          -          -          -          -          -          -          -          -          -          -          -          -
  linesearchdiving :          4        177       3805          5        158         60         78       69.2          0          -          -          -          -
  pscostdiving     :          3        137       4735          3         88         60         74       68.0          0          -          -          -          -
  veclendiving     :          5        225       5651          3        234         58         73       67.6          0          -          -          -          -
Neighborhoods      :      Calls  SetupTime  SolveTime SolveNodes       Sols       Best       Exp3  EpsGreedy        UCB TgtFixRate  Opt  Inf Node Stal  Sol  Usr Othr Actv
  rens             :          2       0.12       0.01          0          0          0    0.00000   -1.00000    0.54935      0.550    0    2    0    0    0    0    0    1
  rins             :          1       0.02       0.02         15          0          0    0.00000   -1.00000    0.55479      0.700    0    1    0    0    0    0    0    1
  mutation         :          5       0.28       0.24        141          1          1    0.00000   -1.00000    0.53778      0.716    1    2    0    2    0    0    0    1
  localbranching   :          2       0.13       0.09         64          0          0    0.00000   -1.00000    0.47264      0.850    0    1    0    1    0    0    0    1
  crossover        :          5       0.35       0.92         63          3          2    0.00000   -1.00000    0.55198      0.459    0    3    0    1    1    0    0    1
  proximity        :          1       0.02       0.02         23          0          0    0.00000   -1.00000    0.54679      0.700    0    1    0    0    0    0    0    1
  zeroobjective    :          3       0.17       0.11        188          1          1    0.00000   -1.00000    0.52783      0.900    1    0    0    2    0    0    0    1
  dins             :          1       0.02       0.02         17          0          0    0.00000   -1.00000    0.55279      0.700    0    1    0    0    0    0    0    1
  trustregion      :          0       0.00       0.00          0          0          0    0.00000   -1.00000    1.00000      0.900    0    0    0    0    0    0    0    0
Expressions        :   #IntEval  IntEvalTi   #RevProp  RevPropTi    DomReds    Cutoffs  #Estimate  EstimTime  Branching  #Simplify SimplifyTi Simplified
  pow              :          0       0.00          0       0.00          0          0          0       0.00          0          0       0.00          0
  prod             :       9900       0.02          0       0.00          0          0          0       0.00          0       6789       0.00          0
  sum              :          8       0.00          2       0.00          0          0          0       0.00          0          3       0.01          2
  var              :       6665       0.01          0       0.00          0          0          0       0.00          0      15732       0.02          0
  varidx           :          0       0.00          0       0.00          0          0          0       0.00          0          0       0.00          0
LP                 :       Time      Calls Iterations  Iter/call   Iter/sec  Time-0-It Calls-0-It    ItLimit
  primal LP        :      93.57       8086          0       0.00       0.00      93.54       8086
  dual LP          :    1761.36     113150   10899457     103.23    6188.09       3.51       7569
  lex dual LP      :       0.00          0          0       0.00          -
  barrier LP       :       0.00          0          0       0.00          -       0.00          0
  resolve instable :       0.00          0          0       0.00          -
  diving/probing LP:     541.43      18000    4840458     268.91    8940.14
  strong branching :      26.36       2587     208464      80.58    7908.35          -          -        116
    (at root node) :          -         20       5523     276.15          -
  conflict analysis:       6.19       3959      37459       9.46    6051.53
NLP relaxation     :
  solve time       :      51.87 (22 calls)
  convexity        :  nonconvex (37 linear rows, 0 convex ineq., 0 nonconvex ineq., 1839 nonlinear eq. or two-sided ineq.)
NLP Solvers        :  #Problems  ProblemTi    #Solves  SolveTime      #Iter  Time/Iter      #Okay #TimeLimit #IterLimit #LObjLimit #Interrupt  #NumError #EvalError  #OutOfMem #LicenseEr #OtherTerm   #GlobOpt    #LocOpt  #Feasible #LocInfeas #GlobInfea #Unbounded   #Unknown
  ipopt            :         12       6.00         52     472.91       1670       0.28         51          0          1          0          0          0          0          0          0          0          0         35          1         15          0          0          1
B&B Tree           :
  number of runs   :          1
  nodes            :      87283 (60917 internal, 26366 leaves)
  feasible leaves  :          2
  infeas. leaves   :         31
  objective leaves :      26332
  nodes (total)    :      87283 (60917 internal, 26366 leaves)
  nodes left       :      34350
  max depth        :         73
  max depth (total):         73
  backtracks       :      14445 (16.5%)
  early backtracks :          0 (0.0%)
  nodes exc. ref.  :          0 (0.0%)
  delayed cutoffs  :          2
  repropagations   :         89 (731 domain reductions, 0 cutoffs)
  avg switch length:       5.17
  switching time   :     114.97
Estim. Tree Size   :     174970
Estimation Tree    : 121835 nodes (87485 visited, 60917 internal, 26568 leaves, 34350 open), weight: 0.0000 completed 0.0915
Estimations        :      estim      value      trend resolution     smooth
  wbe              : 79829917495742          -          -          -          -
  tree-profile     :         -1          -          -          -          -
  gap              :     956643    0.68429    0.00002         32     968445
  tree-weight      :     174970    0.00000    0.00000         32     174778
  leaf-frequency   :     174970    0.30368   -0.00008         32     178661
  ssg              :    1385496    0.85548   -0.00004         32    1459164
  open-nodes       :     174970 34350.00000   49.96698         32     174778
Root Node          :
  First LP value   : -1.00000000000000e+00
  First LP Iters   :       1752 (10305.88 Iter/sec)
  First LP Time    :       0.17
  Final Dual Bound : -9.42442940518010e-01
  Final Root Iters :       4317
  Root LP Estimate : -4.11658893834230e-01
Solution           :
  Solutions found  :         38 (19 improvements)
  First Solution   : +1.00000000000000e+05   (in run 1, after 0 nodes, 0.05 seconds, depth 0, found by <trivial>)
  Gap First Sol.   :   infinite
  Gap Last Sol.    :      46.62 %
  Primal Bound     : -5.73737373737372e-01   (in run 1, after 79403 nodes, 2942.69 seconds, depth 27, found by <crossover>)
  Dual Bound       : -8.38437816040988e-01
  Gap              :      46.14 %
Integrals          :      Total       Avg%
  primal-dual      :  127614.96      35.45
  primal-ref       :          -          - (not evaluated)
  dual-ref         :          -          - (not evaluated)
